36 36
23
3 3 0 15
4 3 8 15
5 3 4 30
6 3 27 22
7 3 17 0
8 3 9 0
9 3 0 0
10 3 12 15
11 3 0 22
12 3 24 0
14 3 22 15
3 15 33 18
16 3 11 22
24 3 9 30
36 3 0 33
4 3 0 30
11 4 0 18
22 4 11 18
5 3 3 15
4 5 0 25
14 5 19 25
15 5 4 25
36 12 0 3
